Route 0: 90 89 67 45 34 42 97 20
Route 1: 57 13 23 70 44 37  7 35
Route 2: 29 78 74 32 79  1 16 81
Route 3: 102 103 109  30  71  80   2  93 104
Route 4: 106  92 105  11  26  53  15  66  98
Route 5: 60 61 22 83 76 55 43 64
Route 6: 68 19 49 91  3 14  0 52 50
Route 7:  46   5   6  38  51  85  87 101  77
Route 8: 47 40  8 62 10 73 82 48
Route 9: 88 75 21 41 54 39 31 28
Route 10: 59 95 96 17 27 65 99 36
Route 11:  86 100  63  72  12  58 108 107  94
Route 12: 33  9  4 24 84 25 18 69 56
Total cost : 13455.79